! HF 6-31G(d) 
! Freq
! PAL4

*xyz -1 1
H          0.00000        0.00000        0.00000
Cl         0.00000        0.00000        1.57000
Cl         0.00000        0.00000       -1.57000
*

