! HF 6-31G(d) 
! Freq
! PAL4

*xyz -1 1
H          0.00000        0.00000       -0.313232
Cl         0.00000        0.00000        1.672750
Cl         0.00000        0.00000       -1.654325
*
